submitit INFO (2023-05-02 18:51:22,298) - Starting with JobEnvironment(job_id=27742, hostname=cpunode3, local_rank=0(5), node=0(1), global_rank=0(5))
submitit INFO (2023-05-02 18:51:22,298) - Loading pickle: /h/30/pashootan/Matrix-Mult-CP/src/../logs/4/1x2x3_6_May02_18:51:20/27742_submitted.pkl
 ! --------------------------------------------------- CP Optimizer 22.1.1.0 --
 ! Satisfiability problem - 66 variables, 36 constraints
 ! TimeLimit            = 7200
 ! Workers              = 8
 ! LogPeriod            = 10000000
 ! RandomSeed           = 4305
 ! Initial process time : 0.00s (0.00s extraction + 0.00s propagation)
 !  . Log search space  : 104.6 (before), 104.6 (after)
 !  . Memory usage      : 366.6 kB (before), 366.6 kB (after)
 ! Using parallel search with 8 workers.
 ! ----------------------------------------------------------------------------
 !               Branches  Non-fixed    W       Branch decision
 *                   2371  0.04s        6         0  = V4_3
 ! ----------------------------------------------------------------------------
 ! Search completed, 1 solution found.
 ! ----------------------------------------------------------------------------
 ! Number of branches     : 29637
 ! Number of fails        : 13415
 ! Total memory usage     : 6.5 MB (6.5 MB CP Optimizer + 0.0 MB Concert)
 ! Time spent in solve    : 0.05s (0.05s engine + 0.00s extraction)
 ! Search speed (br. / s) : 740924.9
 ! ----------------------------------------------------------------------------
Feasible
Model is valid
Saving solution to: /h/30/pashootan/Matrix-Mult-CP/logs/4/1x2x3_6_May02_18:51:20/27742_0_solution.txt
Saving stats to: /h/30/pashootan/Matrix-Mult-CP/logs/4/1x2x3_6_May02_18:51:20/27742_0_stats.csv
submitit INFO (2023-05-02 18:51:22,776) - Job completed successfully
